ITEM = 1..15;
capacity1 = 138;
capacity2 = 138;
capacity3 = 138;
profits = [38, 54, 56, 47, 31, 30, 71, 59, 29, 67, 20, 20, 21, 97, 63];
weights = [100, 88, 55, 50, 39, 46, 73, 69, 46, 61, 19, 10, 12, 97, 65];
